MODELSET= { 

< "ROOT" , "prepro.mod" , 1 > 
//< "KPATH" , "kpath.mod" , 0 > 
< "RELAXMASTER" , "master.mod" , 1 > 
< "FINALMASTER" , "master.mod" , 0 > 

< "SINGLEPRICE" , "singleprice.mod" , 0 >
< "MULTIPRICE" , "multiprice.mod" , 0 >
};

